seed= 2052018 ;
N= 90 ;
M= 3 ;
F= 3 ;
K= 8 ;
T= 24 ;

p=[ 4 4 4 4 4 4 4 4 4 4 4 4 4 4 4 4 4 4 4 4 4 4 4 4 4 4 4 4 4 4 2 2 2 2 2 2 2 2 2 2 2 2 2 2 2 2 2 2 2 2 2 2 2 2 2 2 2 2 2 2 4 4 4 4 4 4 4 4 4 4 4 4 4 4 4 4 4 4 4 4 4 4 4 4 4 4 4 4 4 4 ];
r=[ 0 0 0 0 0 0 0 0 0 0 0 0 0 0 0 0 0 0 0 0 0 0 0 0 0 0 0 0 0 0 0 0 0 0 0 0 0 0 0 0 0 0 0 0 0 0 0 0 0 0 0 0 0 0 0 0 0 0 0 0 0 0 0 0 0 0 0 0 0 0 0 0 0 0 0 0 0 0 0 0 0 0 0 0 0 0 0 0 0 0 ];
d=[ 1 1 18 17 18 16 0 11 16 6 2 0 10 0 11 4 13 3 5 16 2 4 12 2 8 6 12 2 0 5 2 16 18 18 12 13 4 13 14 15 16 14 14 5 1 1 5 3 1 5 11 13 6 14 16 4 11 2 4 7 10 6 10 14 6 11 13 10 6 15 14 12 9 10 10 11 7 15 7 18 2 0 4 4 2 15 3 7 11 0 ];
s=[ 1 1 1 1 1 1 1 1 1 1 1 1 1 1 1 1 1 1 1 1 1 1 1 1 1 1 1 1 1 1 1 1 1 1 1 1 1 1 1 1 1 1 1 1 1 1 1 1 1 1 1 1 1 1 1 1 1 1 1 1 1 1 1 1 1 1 1 1 1 1 1 1 1 1 1 1 1 1 1 1 1 1 1 1 1 1 1 1 1 1 ];
w=[ 5 3 1 5 5 5 4 4 2 5 1 1 4 1 3 1 4 4 2 3 2 4 2 3 2 4 4 1 2 2 4 5 4 2 5 2 4 3 2 1 5 2 2 1 1 1 4 4 3 1 2 2 3 4 3 3 5 1 3 4 2 5 1 5 1 5 5 5 2 5 3 5 3 3 5 3 5 2 5 4 5 3 5 5 1 4 5 3 4 2 ];
f=[ 1 1 1 1 1 1 1 1 1 1 1 1 1 1 1 1 1 1 1 1 1 1 1 1 1 1 1 1 1 1 2 2 2 2 2 2 2 2 2 2 2 2 2 2 2 2 2 2 2 2 2 2 2 2 2 2 2 2 2 2 3 3 3 3 3 3 3 3 3 3 3 3 3 3 3 3 3 3 3 3 3 3 3 3 3 3 3 3 3 3 ];

e1=[ 10 10 10 10 10 10 10 10 10 10 10 10 8 8 8 8 8 8 8 8 8 8 8 8 ];
e2=[ 10 10 10 10 10 10 10 10 9 9 9 9 8 8 8 8 8 8 8 8 9 9 9 9 ];